500 100
19 25 29 48 25 32 18 28 5 18 31 28 10 13 10 33 16 40 27 45 37 49 18 36 19 42 47 37 5 39 30 40 36 35 49 10 45 34 5 8 7 40 12 8 20 12 34 20 43 16 29 35 18 32 45 40 21 17 36 23 45 21 14 24 33 10 11 35 40 39 38 16 18 12 8 29 34 49 48 48 19 20 33 26 48 29 36 28 29 21 41 35 38 24 42 37 22 47 14 42
63 72 81 23 89 52 40 63 46 81 82 34 79 89 22 52 23 74 66 43 73 32 73 82 50 41 30 81 42 70 49 98 69 88 21 29 87 65 54 45 81 25 54 67 25 22 32 85 20 46 20 81 66 72 68 60 25 94 35 23 53 74 59 63 50 66 25 67 92 31 55 22 66 43 56 58 35 59 53 53 50 47 22 28 51 79 97 64 90 61 100 74 96 26 81 45 73 40 66 72
